#Put Keywords Here, check Charge and Multiplicity.

 

0  1
C          -1.70842         1.00920        -0.07117
C          -2.31660         1.17607         1.33422
N          -3.47846         2.07813         1.28667
C          -0.48484         0.06628        -0.03245
C           0.21693        -0.06335        -1.41483
C          -0.69456        -0.65883        -2.52285
N          -1.38877        -1.89272        -2.11003
C           1.60323        -0.76496        -1.29899
C           1.58783        -2.26913        -0.89462
C           1.68595        -3.17707        -2.14677
N           1.41095        -4.58393        -1.80928
C           2.75948        -2.57249         0.06875
H          -2.46933         0.60703        -0.74407
H          -1.40692         1.98719        -0.45507
H          -1.56667         1.59247         2.01249
H          -2.63317         0.20109         1.71525
H          -3.88663         2.17151         2.21480
H          -4.19716         1.68940         0.67912
H          -0.79729        -0.91240         0.33760
H           0.23260         0.46287         0.69049
H           0.44593         0.95558        -1.73842
H          -0.09635        -0.85983        -3.41558
H          -1.45136         0.08226        -2.79345
H          -0.70969        -2.61539        -1.87634
H          -1.95711        -2.24887        -2.87594
H           2.18434        -0.20179        -0.56398
H           2.14304        -0.64836        -2.24248
H           0.66316        -2.49714        -0.36170
H           2.68662        -3.09790        -2.58099
H           0.96513        -2.85803        -2.90167
H           2.09156        -4.91907        -1.13026
H           1.50020        -5.16699        -2.63922
H           3.72021        -2.36958        -0.41071
H           2.74646        -3.61799         0.38459
H           2.68616        -1.95528         0.96735

